n = 20;
m = 10;
C = 4;
SKUs = { "A", "B", "C", "D", "E", "F", "G", "H", "I", "J" };
SKUInOrder = [{"F" }, {"A", "B", "C", "D", "H", "J" }, {"C", "F", "H" }, {"A", "F", "J" }, {"C", "J" }, {"F", "G", "J" }, {"H", "I", "J" }, {"A", "C", "D", "F", "H" }, {"A", "B", "D", "F", "G", "I" }, {"I" }, {"A", "B", "D", "G" }, {"B", "C", "E", "F", "I" }, {"B", "E", "J" }, {"F", "G" }, {"A", "C", "G", "I" }, {"A", "C", "E", "J" }, {"A", "C", "D", "E", "F", "I" }, {"A", "B", "D", "E", "J" }, {"D", "E", "F", "I" }, {"A", "B", "C", "D", "I", "J" } ];
SKUOnRack = [ {"D", "G", "I" }, {"D" }, {"B", "F", "J" }, {"D" }, {"E", "H", "I" }, {"H" }, {"A", "C", "J" }, {"E", "J" }, {"C", "D", "E" }, {"H" } ];
